233	42	4	147	
12	11	12	11

0	0	0	0	0	0	2	1	2
1	0	10	0	0	5	1	6
2	7	0	0	0	6	1	3
3	0	5	0	0	9	1	4
4	0	0	0	9	9	1	5
5	0	3	0	0	5	2	9	37
6	0	0	7	0	10	1	7
7	10	0	0	0	3	1	8
8	0	0	0	3	10	2	11	13
9	0	0	0	6	3	1	10
10	0	0	5	0	3	1	11
11	0	0	0	9	5	1	12
12	5	0	0	0	10	1	15
13	0	0	8	0	5	1	14
14	9	0	0	0	10	1	19
15	0	0	9	0	6	1	16
16	0	0	0	1	5	1	17
17	0	1	0	0	5	1	18
18	0	0	7	0	8	1	23
19	0	0	10	0	7	1	20
20	0	0	0	8	6	1	21
21	4	0	0	0	4	1	22
22	0	10	0	0	3	2	26	31
23	0	2	0	0	8	1	24
24	0	4	0	0	2	1	25
25	0	0	8	0	3	1	27
26	0	2	0	0	9	1	37
27	6	0	0	0	2	1	28
28	2	0	0	0	10	1	29
29	0	2	0	0	7	1	30
30	0	2	0	0	2	1	31
31	0	0	4	0	4	1	32
32	0	2	0	0	2	1	33
33	0	0	7	0	5	1	34
34	0	0	0	3	7	1	35
35	0	0	3	0	4	1	36
36	0	0	8	0	4	1	38
37	0	5	0	0	10	1	40
38	7	0	0	0	4	2	39	40
39	1	0	0	0	4	1	41
40	0	0	5	0	9	1	41
41	0	0	0	0	0	0
